Optimize a model with 42 rows, 44 columns and 115 nonzeros
Coefficient statistics:
  Matrix range     [2e-04, 4e+07]
  Objective range  [1e-04, 1e+02]
  Bounds range     [2e+01, 1e+08]
  RHS range        [7e-04, 1e+05]
Presolve removed 13 rows and 12 columns
Presolve time: 0.00s
Presolved: 29 rows, 32 columns, 63 nonzeros

Iteration    Objective       Primal Inf.    Dual Inf.      Time
       0   -9.9999922e+07   9.965436e+07   0.000000e+00      0s
      30   -3.4521977e+05   0.000000e+00   0.000000e+00      0s

Solved in 30 iterations and 0.00 seconds
Optimal objective -3.452197706e+05

Changed value of parameter Presolve to 0
   Prev: 2  Min: -1  Max: 2  Default: -1
Optimize a model with 42 rows, 44 columns and 115 nonzeros
Coefficient statistics:
  Matrix range     [2e-04, 4e+07]
  Objective range  [1e-04, 1e+02]
  Bounds range     [2e+01, 1e+08]
  RHS range        [7e-04, 1e+05]
Iteration    Objective       Primal Inf.    Dual Inf.      Time
       0   -1.0000000e+26   2.000000e+30   1.000000e-04      0s

Solved in 11 iterations and 0.00 seconds
Infeasible model

Gurobi 7.0.2 (mac64, Python) logging started Wed Sep 26 12:14:07 2018


Gurobi 7.0.2 (mac64, Python) logging started Wed Sep 26 12:15:55 2018


Gurobi 7.0.2 (mac64, Python) logging started Wed Sep 26 12:16:07 2018


Gurobi 7.0.2 (mac64, Python) logging started Wed Sep 26 12:16:42 2018


Gurobi 7.0.2 (mac64, Python) logging started Wed Sep 26 12:17:12 2018


Gurobi 7.0.2 (mac64, Python) logging started Wed Sep 26 12:17:30 2018


Gurobi 7.0.2 (mac64, Python) logging started Wed Sep 26 12:17:39 2018


Gurobi 7.0.2 (mac64, Python) logging started Wed Sep 26 12:18:04 2018


Gurobi 7.0.2 (mac64, Python) logging started Wed Sep 26 12:18:57 2018


Gurobi 7.0.2 (mac64, Python) logging started Wed Sep 26 12:19:11 2018


Gurobi 7.0.2 (mac64, Python) logging started Wed Sep 26 12:22:09 2018


Gurobi 7.0.2 (mac64, Python) logging started Wed Sep 26 12:22:23 2018


Gurobi 7.0.2 (mac64, Python) logging started Wed Sep 26 12:23:15 2018


Gurobi 7.0.2 (mac64, Python) logging started Wed Sep 26 12:27:53 2018


Gurobi 7.0.2 (mac64, Python) logging started Wed Sep 26 12:29:50 2018


Gurobi 7.0.2 (mac64, Python) logging started Wed Sep 26 12:30:26 2018


Gurobi 7.0.2 (mac64, Python) logging started Wed Sep 26 12:30:40 2018


Gurobi 7.0.2 (mac64, Python) logging started Wed Sep 26 12:31:42 2018


Gurobi 7.0.2 (mac64, Python) logging started Wed Sep 26 12:36:39 2018

Changed value of parameter OutputFlag to 1
   Prev: 0  Min: 0  Max: 1  Default: 1
Error: it isn't a multi-objective model
Error: it isn't a multi-objective model
Error: it isn't a multi-objective model
Error: it isn't a multi-objective model
Error: it isn't a multi-objective model
No solution available
Error: it isn't a multi-objective model
No solution available
Optimize a model with 441 rows, 64 columns and 1292 nonzeros
Coefficient statistics:
  Matrix range     [1e-02, 2e+07]
  Objective range  [1e-04, 1e+02]
  Bounds range     [3e+01, 1e+08]
  RHS range        [7e-04, 1e+05]

Solved in 15 iterations and 0.00 seconds
Infeasible model
Error: it isn't a multi-objective model
Error: it isn't a multi-objective model
Error: it isn't a multi-objective model
Error: it isn't a multi-objective model
Error: it isn't a multi-objective model
No solution available
Error: it isn't a multi-objective model
No solution available
Optimize a model with 441 rows, 64 columns and 1292 nonzeros
Coefficient statistics:
  Matrix range     [1e-02, 2e+07]
  Objective range  [1e-04, 1e+02]
  Bounds range     [3e+01, 1e+08]
  RHS range        [7e-04, 1e+05]
Presolve removed 42 rows and 51 columns
Presolve time: 0.00s
Presolved: 22 rows, 398 columns, 1172 nonzeros

Iteration    Objective       Primal Inf.    Dual Inf.      Time
       0    2.8485447e+04   0.000000e+00   0.000000e+00      0s

Solved in 0 iterations and 0.00 seconds
Optimal objective  2.848544679e+04

Gurobi 7.0.2 (mac64, Python) logging started Wed Sep 26 12:39:34 2018


Gurobi 7.0.2 (mac64, Python) logging started Wed Sep 26 12:40:57 2018


Gurobi 7.0.2 (mac64, Python) logging started Wed Sep 26 12:41:28 2018


Gurobi 7.0.2 (mac64, Python) logging started Wed Sep 26 12:41:57 2018


Gurobi 7.0.2 (mac64, Python) logging started Wed Sep 26 12:42:22 2018


Gurobi 7.0.2 (mac64, Python) logging started Wed Sep 26 12:42:39 2018


Gurobi 7.0.2 (mac64, Python) logging started Wed Sep 26 12:42:53 2018


Gurobi 7.0.2 (mac64, Python) logging started Wed Sep 26 12:43:14 2018


Gurobi 7.0.2 (mac64, Python) logging started Wed Sep 26 13:37:16 2018


Gurobi 7.0.2 (mac64, Python) logging started Wed Sep 26 13:41:36 2018


Gurobi 7.0.2 (mac64, Python) logging started Wed Sep 26 13:48:24 2018


Gurobi 7.0.2 (mac64, Python) logging started Wed Sep 26 13:55:48 2018


Gurobi 7.0.2 (mac64, Python) logging started Wed Sep 26 13:56:15 2018


Gurobi 7.0.2 (mac64, Python) logging started Wed Sep 26 13:56:34 2018


Gurobi 7.0.2 (mac64, Python) logging started Wed Sep 26 13:57:10 2018


Gurobi 7.0.2 (mac64, Python) logging started Wed Sep 26 13:57:40 2018


Gurobi 7.0.2 (mac64, Python) logging started Wed Sep 26 13:58:41 2018


Gurobi 7.0.2 (mac64, Python) logging started Wed Sep 26 13:59:13 2018


Gurobi 7.0.2 (mac64, Python) logging started Wed Sep 26 13:59:42 2018


Gurobi 7.0.2 (mac64, Python) logging started Wed Sep 26 13:59:52 2018


Gurobi 7.0.2 (mac64, Python) logging started Wed Sep 26 14:00:46 2018


Gurobi 7.0.2 (mac64, Python) logging started Wed Sep 26 14:01:51 2018


Gurobi 7.0.2 (mac64, Python) logging started Wed Sep 26 14:08:27 2018


Gurobi 7.0.2 (mac64, Python) logging started Wed Sep 26 14:08:40 2018


Gurobi 7.0.2 (mac64, Python) logging started Wed Sep 26 14:19:51 2018


Gurobi 7.0.2 (mac64, Python) logging started Wed Sep 26 14:20:08 2018


Gurobi 7.0.2 (mac64, Python) logging started Wed Sep 26 14:20:40 2018


Gurobi 7.0.2 (mac64, Python) logging started Wed Sep 26 14:21:02 2018


Gurobi 7.0.2 (mac64, Python) logging started Wed Sep 26 14:21:25 2018


Gurobi 7.0.2 (mac64, Python) logging started Wed Sep 26 14:22:26 2018


Gurobi 7.0.2 (mac64, Python) logging started Wed Sep 26 14:22:50 2018


Gurobi 7.0.2 (mac64, Python) logging started Wed Sep 26 14:25:13 2018


Gurobi 7.0.2 (mac64, Python) logging started Wed Sep 26 14:25:39 2018


Gurobi 7.0.2 (mac64, Python) logging started Wed Sep 26 14:26:06 2018


Gurobi 7.0.2 (mac64, Python) logging started Wed Sep 26 14:27:06 2018


Gurobi 7.0.2 (mac64, Python) logging started Thu Sep 27 10:00:57 2018


Gurobi 7.0.2 (mac64, Python) logging started Thu Sep 27 10:01:19 2018


Gurobi 7.0.2 (mac64, Python) logging started Thu Sep 27 10:01:50 2018


Gurobi 7.0.2 (mac64, Python) logging started Thu Sep 27 10:03:10 2018


Gurobi 7.0.2 (mac64, Python) logging started Thu Sep 27 10:04:32 2018


Gurobi 7.0.2 (mac64, Python) logging started Thu Sep 27 10:05:13 2018


Gurobi 8.0.1 (mac64, Python) logging started Thu Sep 27 10:05:54 2018


Gurobi 8.0.1 (mac64, Python) logging started Thu Sep 27 10:07:40 2018


Gurobi 8.0.1 (mac64, Python) logging started Thu Sep 27 10:19:54 2018

Academic license - for non-commercial use only

Gurobi 8.0.1 (mac64, Python) logging started Thu Sep 27 10:20:46 2018

Academic license - for non-commercial use only

Gurobi 8.0.1 (mac64, Python) logging started Thu Sep 27 10:25:22 2018

Academic license - for non-commercial use only

Gurobi 8.0.1 (mac64, Python) logging started Thu Sep 27 10:25:45 2018

Academic license - for non-commercial use only

Gurobi 8.0.1 (mac64, Python) logging started Thu Sep 27 10:26:12 2018

Academic license - for non-commercial use only
